<instance format="XCSP3" type="COP">
  <variables>
    <array id="x" size="[40]"> 0 1 </array>
  </variables>
  <constraints>
    <sum>
      <list> x[] </list>
      <coeffs> 29 19 23 14 15 35 21 7 17 11 25 27 13 30 32 5 15 19 31 16 12 17 12 15 32 24 5 35 35 29 13 6 9 16 22 33 6 25 6 10 </coeffs>
      <condition> (le,150) </condition>
    </sum>
  </constraints>
  <objectives>
    <maximize type="sum">
      <list> x[] </list>
      <coeffs> 11 15 56 41 61 55 77 1 82 77 11 89 68 87 27 34 12 8 65 5 73 29 87 68 75 93 73 25 86 29 34 44 71 18 33 41 36 80 6 4 </coeffs>
    </maximize>
  </objectives>
</instance>
